000 000 000 000 000 000 000 000 -99 -99 -99 -99 -99 000 000 -99 -99 -99 000 000 -99 000 -99 000 000 000 -99 000 000 -99 000
-99 -99 -99 000 000 000 000 000 -99 -99 -99 -99 -99 000 000 000 -99 -99 -99 -99 -99 000 000 -99 000 000 000 000 000 -99 -99
000 000 000 000 000 000 000 000 000 -99 -99 -99 -99 -99 000 000 -99 -99 -99 -99 -99 -99 000 000 000 -99 000 000 000 -99 -99
000 000 000 000 000 000 000 000 000 -99 -99 -99 -99 -99 000 000 -99 -99 -99 000 000 -99 000 000 000 000 -99 000 000 -99 -99
000 000 000 000 000 000 000 000 000 000 -99 -99 000 000 000 000 -99 -99 -99 -99 000 -99 000 000 000 000 -99 -99 000 -99 -99
000 000 000 000 000 000 000 000 000 000 -99 -99 000 -99 000 000 -99 000 -99 -99 000 000 000 000 000 000 -99 -99 -99 -99 -99
000 000 000 000 000 -99 000 000 000 000 000 -99 -99 000 000 000 000 000 -99 000 000 000 000 000 000 000 -99 -99 -99 -99 -99
000 000 000 000 000 000 000 000 000 000 000 -99 -99 -99 -99 000 000 000 -99 -99 000 000 000 000 000 000 -99 -99 -99 -99 000
000 000 000 000 000 000 000 000 000 000 000 000 -99 -99 -99 -99 000 000 -99 000 000 000 000 000 000 -99 -99 -99 -99 -99 000
000 000 000 000 000 000 000 000 000 000 000 000 -99 -99 -99 -99 000 000 -99 000 000 000 -99 -99 000 000 -99 -99 -99 000 000
000 000 000 000 000 000 000 000 000 000 000 000 -99 -99 -99 000 000 000 000 -99 000 000 -99 -99 000 000 -99 -99 000 000 000
000 000 000 000 000 000 000 000 000 000 000 000 -99 -99 -99 000 000 000 000 000 000 000 -99 -99 000 -99 -99 -99 000 000 000
000 000 000 000 000 000 000 000 000 000 000 000 -99 -99 -99 000 000 000 000 -99 -99 -99 -99 -99 000 000 -99 -99 -99 000 000
000 000 000 000 000 000 000 000 -99 -99 -99 000 000 -99 -99 000 000 000 000 000 -99 -99 -99 -99 000 000 000 -99 -99 -99 000
000 000 000 000 000 000 000 000 -99 -99 -99 -99 -99 000 -99 000 000 -99 -99 -99 -99 -99 -99 000 000 000 000 000 -99 -99 000
000 -99 -99 000 000 000 000 000 -99 -99 -99 -99 -99 000 -99 -99 -99 000 -99 -99 -99 -99 -99 000 000 000 000 000 -99 -99 000
000 000 -99 000 -99 -99 000 000 -99 -99 -99 -99 -99 000 000 -99 -99 000 -99 -99 -99 -99 000 -99 000 000 000 000 000 -99 000
000 000 000 -99 -99 -99 000 000 000 -99 -99 -99 -99 000 000 -99 000 000 -99 -99 000 000 000 -99 000 000 -99 000 -99 -99 000
000 000 000 000 -99 -99 -99 000 000 -99 -99 -99 -99 -99 000 -99 000 000 -99 -99 000 000 000 -99 -99 000 -99 -99 -99 -99 -99
000 000 000 000 000 -99 -99 000 000 000 000 000 000 000 000 000 000 000 000 000 000 000 000 -99 -99 -99 -99 -99 -99 -99 -99
000 000 000 000 000 000 -99 000 000 000 000 000 000 000 000 000 000 000 000 000 000 000 000 -99 -99 -99 -99 -99 -99 -99 -99
000 000 000 000 000 000 000 000 000 000 000 001 001 000 000 000 000 000 000 000 000 000 000 -99 -99 -99 -99 -99 -99 -99 -99
000 000 000 000 000 000 000 000 000 000 001 001 002 000 000 000 000 000 000 000 000 000 000 -99 -99 -99 -99 -99 -99 -99 -99
000 000 000 000 000 000 001 000 002 002 002 002 003 002 002 003 001 000 000 000 000 000 000 -99 -99 -99 -99 -99 -99 -99 -99
000 000 000 000 000 000 000 001 002 001 002 002 001 004 003 002 002 000 000 000 000 000 000 -99 -99 -99 -99 -99 -99 -99 -99
000 000 000 000 000 000 001 001 001 004 004 002 002 002 003 003 002 000 000 000 000 000 000 -99 -99 -99 -99 -99 -99 -99 000
000 000 000 000 000 000 001 001 001 004 003 002 001 002 003 002 002 000 000 000 000 000 -99 -99 -99 -99 -99 -99 -99 -99 000
000 000 000 000 000 000 001 002 001 003 002 001 003 003 002 002 001 000 000 000 000 000 -99 -99 -99 -99 -99 -99 -99 -99 000
000 000 000 001 001 001 002 001 001 002 001 001 002 002 001 001 000 000 000 000 000 000 -99 -99 -99 -99 -99 -99 -99 -99 000
000 000 000 002 002 001 002 001 001 000 001 001 002 001 001 001 001 001 000 000 000 000 -99 -99 -99 -99 -99 -99 -99 -99 000
000 000 000 000 001 002 001 001 001 001 001 001 001 001 001 001 001 001 000 000 000 000 -99 -99 -99 -99 -99 -99 -99 -99 000
000 000 000 000 001 002 001 000 000 000 001 001 001 001 000 000 001 000 000 -99 -99 -99 -99 -99 000 -99 -99 -99 -99 -99 000
000 000 000 000 000 000 000 000 000 000 000 001 001 001 000 000 000 000 000 -99 -99 -99 -99 -99 000 000 -99 -99 -99 -99 -99
000 000 000 000 000 000 000 000 000 000 001 000 000 001 000 000 000 000 000 -99 -99 000 000 -99 000 000 -99 -99 -99 000 000
000 000 000 000 000 000 000 000 000 000 000 000 001 001 000 000 000 000 000 000 000 000 000 000 000 000 000 -99 000 000 000
000 000 000 000 000 000 000 000 000 000 000 000 000 000 000 000 000 000 000 000 000 000 000 000 000 000 000 -99 000 000 000
000 000 000 000 000 000 000 000 000 000 000 000 000 000 000 000 000 000 000 000 000 000 000 -99 000 000 000 -99 -99 000 000
000 000 000 000 000 000 000 000 000 000 000 000 000 000 000 000 000 000 000 000 000 000 000 000 000 000 000 000 -99 000 000
-99 000 000 000 000 000 000 000 000 000 000 000 000 000 000 000 -99 -99 -99 000 000 000 -99 000 000 000 000 000 -99 000 -99
-99 000 000 000 000 -99 -99 000 -99 000 000 000 000 000 000 000 -99 -99 -99 -99 000 -99 000 000 000 000 000 000 000 000 -99
000 000 000 000 -99 -99 -99 -99 -99 -99 000 000 000 000 -99 000 -99 -99 000 000 000 -99 000 000 000 000 000 000 000 000 -99
000 000 -99 000 -99 -99 000 -99 -99 -99 000 000 000 000 -99 -99 -99 000 000 000 000 -99 000 000 000 000 000 000 000 000 -99
000 000 -99 -99 -99 000 000 000 -99 000 000 000 000 -99 -99 000 -99 000 000 000 000 000 001 000 000 001 000 000 000 000 -99
000 000 -99 -99 -99 000 000 000 000 000 000 000 000 000 000 000 -99 000 000 000 -99 000 000 000 000 001 000 000 006 -99 -99
000 000 -99 -99 000 000 000 000 000 000 000 000 000 000 000 -99 -99 000 000 -99 -99 000 000 000 000 000 000 000 034 -99 -99
000 -99 -99 -99 -99 -99 000 000 000 000 000 000 000 000 000 -99 -99 -99 -99 -99 000 000 000 000 000 000 000 -99 -99 -99 000
000 -99 -99 -99 -99 -99 -99 000 000 000 -99 000 000 -99 -99 -99 -99 000 -99 000 000 000 000 000 -99 000 -99 -99 -99 -99 000
-99 -99 -99 -99 -99 -99 -99 000 -99 000 -99 -99 000 -99 -99 -99 -99 000 -99 000 000 000 000 -99 000 000 -99 -99 000 -99 -99
-99 -99 -99 -99 -99 -99 -99 -99 -99 -99 -99 -99 -99 -99 -99 -99 000 000 000 000 000 000 000 000 000 000 -99 -99 000 -99 -99
-99 -99 -99 -99 -99 -99 -99 -99 -99 000 -99 -99 -99 -99 -99 -99 000 000 000 000 000 000 -99 -99 000 000 000 -99 -99 -99 -99
-99 -99 -99 -99 -99 -99 -99 -99 000 000 -99 -99 -99 -99 -99 000 000 000 000 000 000 000 -99 -99 -99 -99 000 -99 -99 -99 -99
-99 -99 -99 -99 -99 -99 -99 -99 000 000 -99 -99 000 000 -99 000 000 000 000 000 -99 -99 -99 -99 -99 -99 -99 -99 -99 -99 -99
-99 -99 -99 -99 -99 -99 -99 -99 -99 -99 -99 -99 000 000 000 000 000 000 000 000 000 -99 -99 -99 -99 -99 -99 -99 -99 -99 -99
-99 -99 -99 -99 -99 -99 -99 -99 -99 -99 -99 000 000 000 000 000 000 000 000 -99 -99 -99 -99 -99 -99 -99 -99 -99 -99 -99 -99
-99 -99 -99 -99 -99 -99 -99 -99 -99 -99 -99 -99 -99 -99 -99 000 000 -99 -99 -99 -99 -99 -99 -99 -99 -99 -99 -99 -99 -99 -99
